245
9
248
29
186
200
12
251
98
244
109
114
95
206
43
192
265
9
52
165
56
238
190
12
158
56
210
43
182
249
155
3
122
24
55
260
89
250
217
108
80
97
96
40
11
183
21
221
196
25
31
134
126
148
170
130
197
69
112
45
167
219
142
51
120
235
60
74
139
244
59
174
10
115
57
124
173
108
134
133
107
5
135
211
172
190
160
183
175
6
152
122
136
182
215
165
154
74
66
256
